n_res = 4;
rc = [ 11, 12, 9, 9 ];
n_tasks = 30;
d = [ 4, 3, 10, 10, 5, 1, 7, 4, 5, 7, 10, 2, 4, 5, 5, 4, 3, 7, 6, 2, 5, 8, 3, 3, 2, 10, 3, 5, 5, 1 ];
rr = [| 1, 0, 0, 0, 0, 0, 3, 0, 0, 0, 0, 0, 0, 0, 0, 0, 0, 0, 8, 0, 0, 10, 0, 5, 8, 0, 0, 8, 7, 5
      | 0, 0, 0, 0, 10, 3, 0, 0, 0, 0, 3, 7, 0, 5, 0, 0, 0, 0, 0, 0, 0, 0, 0, 0, 0, 0, 0, 0, 0, 0
      | 0, 0, 0, 1, 0, 0, 0, 0, 0, 0, 0, 0, 2, 0, 0, 0, 7, 0, 0, 2, 8, 0, 7, 0, 0, 5, 0, 0, 0, 0
      | 0, 2, 4, 0, 0, 0, 0, 1, 6, 6, 0, 0, 0, 0, 1, 4, 0, 3, 0, 0, 0, 0, 0, 0, 0, 0, 9, 0, 0, 0 |];
suc = [ { 2 }, 
        { 3 }, 
        { 4 }, 
        { 5 }, 
        { 6 }, 
        { 7 }, 
        { 8 }, 
        { 9 }, 
        { 10 }, 
        { 11 }, 
        { 12 }, 
        { 13 }, 
        { 14 }, 
        { 15 }, 
        { 16 }, 
        { 17 }, 
        { 18 }, 
        { 19 }, 
        { 20 }, 
        { 21 }, 
        { 22 }, 
        { 23 }, 
        { 24 }, 
        { 25 }, 
        { 26 }, 
        { 27 }, 
        { 28 }, 
        { 29 }, 
        { 30 }, 
        {  }]; 
